instances/shortest_path/discrete/shortest_path_8_2.lp
\ Model nohadani_8_2
\ LP format - for model browsing. Use MPS format to capture full model detail.
\ Signature: 0x229cff0c87735314
Minimize
  20.12461179749811 y[0,1] + 26.57066051117285 y[0,2]
   + 47.0425339453563 y[0,3] + 48.82622246293481 y[0,4]
   + 36.6742416417845 y[0,5] + 27.31300056749533 y[0,6] + 80 y[0,7]
   + 20.12461179749811 y[1,0] + 43.41658669218482 y[1,2]
   + 31.01612483854165 y[1,3] + 55.47071299343465 y[1,4]
   + 56.32051136131489 y[1,5] + 44.68780594300866 y[1,6]
   + 62.64982043070834 y[1,7] + 26.57066051117285 y[2,0]
   + 43.41658669218482 y[2,1] + 60.53924347066124 y[2,3]
   + 67.72001181334805 y[2,4] + 32.4499614791759 y[2,5] + 2 y[2,6]
   + 47.0425339453563 y[3,0] + 31.01612483854165 y[3,1]
   + 60.53924347066124 y[3,2] + 62.39390995922599 y[3,6]
   + 66.007575322837 y[3,7] + 48.82622246293481 y[4,0]
   + 55.47071299343465 y[4,1] + 67.72001181334805 y[4,2]
   + 47.67598976424087 y[4,5] + 67.1863081289633 y[4,6]
   + 79.6994353806851 y[4,7] + 36.6742416417845 y[5,0]
   + 56.32051136131489 y[5,1] + 32.4499614791759 y[5,2]
   + 47.67598976424087 y[5,4] + 30.80584360149873 y[5,6]
   + 27.31300056749533 y[6,0] + 44.68780594300866 y[6,1] + 2 y[6,2]
   + 62.39390995922599 y[6,3] + 67.1863081289633 y[6,4]
   + 30.80584360149873 y[6,5] + 80 y[7,0] + 62.64982043070834 y[7,1]
   + 66.007575322837 y[7,3] + 79.6994353806851 y[7,4] + x[0,1] + x[0,2]
   + x[0,3] + x[0,4] + x[0,5] + x[0,6] + x[0,7] + x[1,0] + x[1,2] + x[1,3]
   + x[1,4] + x[1,5] + x[1,6] + x[1,7] + x[2,0] + x[2,1] + x[2,3] + x[2,4]
   + x[2,5] + x[2,6] + x[3,0] + x[3,1] + x[3,2] + x[3,6] + x[3,7] + x[4,0]
   + x[4,1] + x[4,2] + x[4,5] + x[4,6] + x[4,7] + x[5,0] + x[5,1] + x[5,2]
   + x[5,4] + x[5,6] + x[6,0] + x[6,1] + x[6,2] + x[6,3] + x[6,4] + x[6,5]
   + x[7,0] + x[7,1] + x[7,3] + x[7,4] + 2.012461179749811 r[0,1]
   + 2.657066051117285 r[0,2] + 4.70425339453563 r[0,3]
   + 4.882622246293481 r[0,4] + 3.66742416417845 r[0,5]
   + 2.731300056749533 r[0,6] + 8 r[0,7] + 2.012461179749811 r[1,0]
   + 4.341658669218482 r[1,2] + 3.101612483854165 r[1,3]
   + 5.547071299343465 r[1,4] + 5.63205113613149 r[1,5]
   + 4.468780594300866 r[1,6] + 6.264982043070834 r[1,7]
   + 2.657066051117285 r[2,0] + 4.341658669218482 r[2,1]
   + 6.053924347066125 r[2,3] + 6.772001181334805 r[2,4]
   + 3.244996147917591 r[2,5] + 0.2 r[2,6] + 4.70425339453563 r[3,0]
   + 3.101612483854165 r[3,1] + 6.053924347066125 r[3,2]
   + 6.239390995922599 r[3,6] + 6.6007575322837 r[3,7]
   + 4.882622246293481 r[4,0] + 5.547071299343465 r[4,1]
   + 6.772001181334805 r[4,2] + 4.767598976424087 r[4,5]
   + 6.718630812896331 r[4,6] + 7.96994353806851 r[4,7]
   + 3.66742416417845 r[5,0] + 5.63205113613149 r[5,1]
   + 3.244996147917591 r[5,2] + 4.767598976424087 r[5,4]
   + 3.080584360149873 r[5,6] + 2.731300056749533 r[6,0]
   + 4.468780594300866 r[6,1] + 0.2 r[6,2] + 6.239390995922599 r[6,3]
   + 6.718630812896331 r[6,4] + 3.080584360149873 r[6,5] + 8 r[7,0]
   + 6.264982043070834 r[7,1] + 6.6007575322837 r[7,3]
   + 7.96994353806851 r[7,4]
Subject To
 flow_cons_inner_nodes[0]: - y[0,1] - y[0,2] - y[0,3] - y[0,4] - y[0,5]
   - y[0,6] - y[0,7] + y[1,0] + y[2,0] + y[3,0] + y[4,0] + y[5,0] + y[6,0]
   + y[7,0] = 0
 flow_cons_inner_nodes[1]: y[0,1] - y[1,0] - y[1,2] - y[1,3] - y[1,4]
   - y[1,5] - y[1,6] - y[1,7] + y[2,1] + y[3,1] + y[4,1] + y[5,1] + y[6,1]
   + y[7,1] = 0
 flow_cons_inner_nodes[2]: y[0,2] + y[1,2] - y[2,0] - y[2,1] - y[2,3]
   - y[2,4] - y[2,5] - y[2,6] + y[3,2] + y[4,2] + y[5,2] + y[6,2] = 0
 flow_cons_inner_nodes[3]: y[0,3] + y[1,3] + y[2,3] - y[3,0] - y[3,1]
   - y[3,2] - y[3,6] - y[3,7] + y[6,3] + y[7,3] = 0
 flow_cons_inner_nodes[4]: y[0,4] + y[1,4] + y[2,4] - y[4,0] - y[4,1]
   - y[4,2] - y[4,5] - y[4,6] - y[4,7] + y[5,4] + y[6,4] + y[7,4] = 0
 flow_cons_inner_nodes[6]: y[0,6] + y[1,6] + y[2,6] + y[3,6] + y[4,6]
   + y[5,6] - y[6,0] - y[6,1] - y[6,2] - y[6,3] - y[6,4] - y[6,5] = 0
 flow_cons_source: - y[0,5] - y[1,5] - y[2,5] - y[4,5] + y[5,0] + y[5,1]
   + y[5,2] + y[5,4] + y[5,6] - y[6,5] = 1
 flow_cons_target: y[0,7] + y[1,7] + y[3,7] + y[4,7] - y[7,0] - y[7,1]
   - y[7,3] - y[7,4] = 1
 primal_lower: 0.4469674523391083 x[0,1] + 3.239019418495406 x[0,2]
   + 0.5866049204925953 x[0,3] + 3.87327146769385 x[0,4]
   + 2.587717313573826 x[0,5] + 4.494025973777113 x[0,6]
   + 2.067501099748611 x[0,7] + 3.714645435793551 x[1,0]
   + 4.12440840326935 x[1,2] + 1.672089087538423 x[1,3]
   + 1.378842595827292 x[1,4] + 0.3448799055986365 x[1,5]
   + 1.417447698379731 x[1,6] + 1.506274752024416 x[1,7]
   + 1.973797705386087 x[2,0] + 2.781188001368468 x[2,1]
   + 3.556595203443407 x[2,3] + 1.354272905288128 x[2,4]
   + 4.023727787399399 x[2,5] + 1.449668816761126 x[2,6]
   + 3.810422134925255 x[3,0] + 3.334065308791491 x[3,1]
   + 3.773277524687134 x[3,2] + 1.360339539630955 x[3,6]
   + 0.872252259727192 x[3,7] + 4.732393269364402 x[4,0]
   + 0.968861966046756 x[4,1] + 3.618642276774943 x[4,2]
   + 2.296601391171186 x[4,5] + 0.5198661769305579 x[4,6]
   + 4.852417619153576 x[4,7] + 1.993762108962428 x[5,0]
   + 4.407688328829698 x[5,1] + 1.329503321831115 x[5,2]
   + 3.238989369582279 x[5,4] + 3.249243613431363 x[5,6]
   + 0.3107380683251014 x[6,0] + 4.577675549881242 x[6,1]
   + 0.1842424041015967 x[6,2] + 0.9859005749018968 x[6,3]
   + 3.450358051735731 x[6,4] + 1.226422720448851 x[6,5]
   + 1.52867437912107 x[7,0] + 3.764742038656795 x[7,1]
   + 4.826670479798073 x[7,3] + 3.399990465056907 x[7,4] + 93 u[0,1]
   + 21 u[0,2] + 71 u[0,3] + 36 u[0,4] + 21 u[0,5] + 99 u[0,6] + 30 u[0,7]
   + 81 u[1,0] + 58 u[1,2] + 63 u[1,3] + 9 u[1,4] + 16 u[1,5] + 33 u[1,6]
   + 81 u[1,7] + 82 u[2,0] + 78 u[2,1] + 14 u[2,3] + 61 u[2,4] + 46 u[2,5]
   + 31 u[2,6] + 90 u[3,0] + 41 u[3,1] + 9 u[3,2] + 76 u[3,6] + 90 u[3,7]
   + 81 u[4,0] + 83 u[4,1] + 65 u[4,2] + 47 u[4,5] + 96 u[4,6] + 55 u[4,7]
   + 53 u[5,0] + 53 u[5,1] + 98 u[5,2] + 85 u[5,4] + 26 u[5,6] + 9 u[6,0]
   + 54 u[6,1] + 25 u[6,2] + 64 u[6,3] + 72 u[6,4] + 3 u[6,5] + 27 u[7,0]
   + 83 u[7,1] + 84 u[7,3] + 4 u[7,4] <= 227
 mccormick1[0,1]: - u[0,1] + r[0,1] <= 0
 mccormick1[0,2]: - u[0,2] + r[0,2] <= 0
 mccormick1[0,3]: - u[0,3] + r[0,3] <= 0
 mccormick1[0,4]: - u[0,4] + r[0,4] <= 0
 mccormick1[0,5]: - u[0,5] + r[0,5] <= 0
 mccormick1[0,6]: - u[0,6] + r[0,6] <= 0
 mccormick1[0,7]: - u[0,7] + r[0,7] <= 0
 mccormick1[1,0]: - u[1,0] + r[1,0] <= 0
 mccormick1[1,2]: - u[1,2] + r[1,2] <= 0
 mccormick1[1,3]: - u[1,3] + r[1,3] <= 0
 mccormick1[1,4]: - u[1,4] + r[1,4] <= 0
 mccormick1[1,5]: - u[1,5] + r[1,5] <= 0
 mccormick1[1,6]: - u[1,6] + r[1,6] <= 0
 mccormick1[1,7]: - u[1,7] + r[1,7] <= 0
 mccormick1[2,0]: - u[2,0] + r[2,0] <= 0
 mccormick1[2,1]: - u[2,1] + r[2,1] <= 0
 mccormick1[2,3]: - u[2,3] + r[2,3] <= 0
 mccormick1[2,4]: - u[2,4] + r[2,4] <= 0
 mccormick1[2,5]: - u[2,5] + r[2,5] <= 0
 mccormick1[2,6]: - u[2,6] + r[2,6] <= 0
 mccormick1[3,0]: - u[3,0] + r[3,0] <= 0
 mccormick1[3,1]: - u[3,1] + r[3,1] <= 0
 mccormick1[3,2]: - u[3,2] + r[3,2] <= 0
 mccormick1[3,6]: - u[3,6] + r[3,6] <= 0
 mccormick1[3,7]: - u[3,7] + r[3,7] <= 0
 mccormick1[4,0]: - u[4,0] + r[4,0] <= 0
 mccormick1[4,1]: - u[4,1] + r[4,1] <= 0
 mccormick1[4,2]: - u[4,2] + r[4,2] <= 0
 mccormick1[4,5]: - u[4,5] + r[4,5] <= 0
 mccormick1[4,6]: - u[4,6] + r[4,6] <= 0
 mccormick1[4,7]: - u[4,7] + r[4,7] <= 0
 mccormick1[5,0]: - u[5,0] + r[5,0] <= 0
 mccormick1[5,1]: - u[5,1] + r[5,1] <= 0
 mccormick1[5,2]: - u[5,2] + r[5,2] <= 0
 mccormick1[5,4]: - u[5,4] + r[5,4] <= 0
 mccormick1[5,6]: - u[5,6] + r[5,6] <= 0
 mccormick1[6,0]: - u[6,0] + r[6,0] <= 0
 mccormick1[6,1]: - u[6,1] + r[6,1] <= 0
 mccormick1[6,2]: - u[6,2] + r[6,2] <= 0
 mccormick1[6,3]: - u[6,3] + r[6,3] <= 0
 mccormick1[6,4]: - u[6,4] + r[6,4] <= 0
 mccormick1[6,5]: - u[6,5] + r[6,5] <= 0
 mccormick1[7,0]: - u[7,0] + r[7,0] <= 0
 mccormick1[7,1]: - u[7,1] + r[7,1] <= 0
 mccormick1[7,3]: - u[7,3] + r[7,3] <= 0
 mccormick1[7,4]: - u[7,4] + r[7,4] <= 0
 mccormick2[0,1]: - y[0,1] + r[0,1] <= 0
 mccormick2[0,2]: - y[0,2] + r[0,2] <= 0
 mccormick2[0,3]: - y[0,3] + r[0,3] <= 0
 mccormick2[0,4]: - y[0,4] + r[0,4] <= 0
 mccormick2[0,5]: - y[0,5] + r[0,5] <= 0
 mccormick2[0,6]: - y[0,6] + r[0,6] <= 0
 mccormick2[0,7]: - y[0,7] + r[0,7] <= 0
 mccormick2[1,0]: - y[1,0] + r[1,0] <= 0
 mccormick2[1,2]: - y[1,2] + r[1,2] <= 0
 mccormick2[1,3]: - y[1,3] + r[1,3] <= 0
 mccormick2[1,4]: - y[1,4] + r[1,4] <= 0
 mccormick2[1,5]: - y[1,5] + r[1,5] <= 0
 mccormick2[1,6]: - y[1,6] + r[1,6] <= 0
 mccormick2[1,7]: - y[1,7] + r[1,7] <= 0
 mccormick2[2,0]: - y[2,0] + r[2,0] <= 0
 mccormick2[2,1]: - y[2,1] + r[2,1] <= 0
 mccormick2[2,3]: - y[2,3] + r[2,3] <= 0
 mccormick2[2,4]: - y[2,4] + r[2,4] <= 0
 mccormick2[2,5]: - y[2,5] + r[2,5] <= 0
 mccormick2[2,6]: - y[2,6] + r[2,6] <= 0
 mccormick2[3,0]: - y[3,0] + r[3,0] <= 0
 mccormick2[3,1]: - y[3,1] + r[3,1] <= 0
 mccormick2[3,2]: - y[3,2] + r[3,2] <= 0
 mccormick2[3,6]: - y[3,6] + r[3,6] <= 0
 mccormick2[3,7]: - y[3,7] + r[3,7] <= 0
 mccormick2[4,0]: - y[4,0] + r[4,0] <= 0
 mccormick2[4,1]: - y[4,1] + r[4,1] <= 0
 mccormick2[4,2]: - y[4,2] + r[4,2] <= 0
 mccormick2[4,5]: - y[4,5] + r[4,5] <= 0
 mccormick2[4,6]: - y[4,6] + r[4,6] <= 0
 mccormick2[4,7]: - y[4,7] + r[4,7] <= 0
 mccormick2[5,0]: - y[5,0] + r[5,0] <= 0
 mccormick2[5,1]: - y[5,1] + r[5,1] <= 0
 mccormick2[5,2]: - y[5,2] + r[5,2] <= 0
 mccormick2[5,4]: - y[5,4] + r[5,4] <= 0
 mccormick2[5,6]: - y[5,6] + r[5,6] <= 0
 mccormick2[6,0]: - y[6,0] + r[6,0] <= 0
 mccormick2[6,1]: - y[6,1] + r[6,1] <= 0
 mccormick2[6,2]: - y[6,2] + r[6,2] <= 0
 mccormick2[6,3]: - y[6,3] + r[6,3] <= 0
 mccormick2[6,4]: - y[6,4] + r[6,4] <= 0
 mccormick2[6,5]: - y[6,5] + r[6,5] <= 0
 mccormick2[7,0]: - y[7,0] + r[7,0] <= 0
 mccormick2[7,1]: - y[7,1] + r[7,1] <= 0
 mccormick2[7,3]: - y[7,3] + r[7,3] <= 0
 mccormick2[7,4]: - y[7,4] + r[7,4] <= 0
 mccormick3[0,1]: - y[0,1] - u[0,1] + r[0,1] >= -1
 mccormick3[0,2]: - y[0,2] - u[0,2] + r[0,2] >= -1
 mccormick3[0,3]: - y[0,3] - u[0,3] + r[0,3] >= -1
 mccormick3[0,4]: - y[0,4] - u[0,4] + r[0,4] >= -1
 mccormick3[0,5]: - y[0,5] - u[0,5] + r[0,5] >= -1
 mccormick3[0,6]: - y[0,6] - u[0,6] + r[0,6] >= -1
 mccormick3[0,7]: - y[0,7] - u[0,7] + r[0,7] >= -1
 mccormick3[1,0]: - y[1,0] - u[1,0] + r[1,0] >= -1
 mccormick3[1,2]: - y[1,2] - u[1,2] + r[1,2] >= -1
 mccormick3[1,3]: - y[1,3] - u[1,3] + r[1,3] >= -1
 mccormick3[1,4]: - y[1,4] - u[1,4] + r[1,4] >= -1
 mccormick3[1,5]: - y[1,5] - u[1,5] + r[1,5] >= -1
 mccormick3[1,6]: - y[1,6] - u[1,6] + r[1,6] >= -1
 mccormick3[1,7]: - y[1,7] - u[1,7] + r[1,7] >= -1
 mccormick3[2,0]: - y[2,0] - u[2,0] + r[2,0] >= -1
 mccormick3[2,1]: - y[2,1] - u[2,1] + r[2,1] >= -1
 mccormick3[2,3]: - y[2,3] - u[2,3] + r[2,3] >= -1
 mccormick3[2,4]: - y[2,4] - u[2,4] + r[2,4] >= -1
 mccormick3[2,5]: - y[2,5] - u[2,5] + r[2,5] >= -1
 mccormick3[2,6]: - y[2,6] - u[2,6] + r[2,6] >= -1
 mccormick3[3,0]: - y[3,0] - u[3,0] + r[3,0] >= -1
 mccormick3[3,1]: - y[3,1] - u[3,1] + r[3,1] >= -1
 mccormick3[3,2]: - y[3,2] - u[3,2] + r[3,2] >= -1
 mccormick3[3,6]: - y[3,6] - u[3,6] + r[3,6] >= -1
 mccormick3[3,7]: - y[3,7] - u[3,7] + r[3,7] >= -1
 mccormick3[4,0]: - y[4,0] - u[4,0] + r[4,0] >= -1
 mccormick3[4,1]: - y[4,1] - u[4,1] + r[4,1] >= -1
 mccormick3[4,2]: - y[4,2] - u[4,2] + r[4,2] >= -1
 mccormick3[4,5]: - y[4,5] - u[4,5] + r[4,5] >= -1
 mccormick3[4,6]: - y[4,6] - u[4,6] + r[4,6] >= -1
 mccormick3[4,7]: - y[4,7] - u[4,7] + r[4,7] >= -1
 mccormick3[5,0]: - y[5,0] - u[5,0] + r[5,0] >= -1
 mccormick3[5,1]: - y[5,1] - u[5,1] + r[5,1] >= -1
 mccormick3[5,2]: - y[5,2] - u[5,2] + r[5,2] >= -1
 mccormick3[5,4]: - y[5,4] - u[5,4] + r[5,4] >= -1
 mccormick3[5,6]: - y[5,6] - u[5,6] + r[5,6] >= -1
 mccormick3[6,0]: - y[6,0] - u[6,0] + r[6,0] >= -1
 mccormick3[6,1]: - y[6,1] - u[6,1] + r[6,1] >= -1
 mccormick3[6,2]: - y[6,2] - u[6,2] + r[6,2] >= -1
 mccormick3[6,3]: - y[6,3] - u[6,3] + r[6,3] >= -1
 mccormick3[6,4]: - y[6,4] - u[6,4] + r[6,4] >= -1
 mccormick3[6,5]: - y[6,5] - u[6,5] + r[6,5] >= -1
 mccormick3[7,0]: - y[7,0] - u[7,0] + r[7,0] >= -1
 mccormick3[7,1]: - y[7,1] - u[7,1] + r[7,1] >= -1
 mccormick3[7,3]: - y[7,3] - u[7,3] + r[7,3] >= -1
 mccormick3[7,4]: - y[7,4] - u[7,4] + r[7,4] >= -1
Bounds
Binaries
 y[0,1] y[0,2] y[0,3] y[0,4] y[0,5] y[0,6] y[0,7] y[1,0] y[1,2] y[1,3]
 y[1,4] y[1,5] y[1,6] y[1,7] y[2,0] y[2,1] y[2,3] y[2,4] y[2,5] y[2,6]
 y[3,0] y[3,1] y[3,2] y[3,6] y[3,7] y[4,0] y[4,1] y[4,2] y[4,5] y[4,6]
 y[4,7] y[5,0] y[5,1] y[5,2] y[5,4] y[5,6] y[6,0] y[6,1] y[6,2] y[6,3]
 y[6,4] y[6,5] y[7,0] y[7,1] y[7,3] y[7,4] x[0,1] x[0,2] x[0,3] x[0,4]
 x[0,5] x[0,6] x[0,7] x[1,0] x[1,2] x[1,3] x[1,4] x[1,5] x[1,6] x[1,7]
 x[2,0] x[2,1] x[2,3] x[2,4] x[2,5] x[2,6] x[3,0] x[3,1] x[3,2] x[3,6]
 x[3,7] x[4,0] x[4,1] x[4,2] x[4,5] x[4,6] x[4,7] x[5,0] x[5,1] x[5,2]
 x[5,4] x[5,6] x[6,0] x[6,1] x[6,2] x[6,3] x[6,4] x[6,5] x[7,0] x[7,1]
 x[7,3] x[7,4] u[0,1] u[0,2] u[0,3] u[0,4] u[0,5] u[0,6] u[0,7] u[1,0]
 u[1,2] u[1,3] u[1,4] u[1,5] u[1,6] u[1,7] u[2,0] u[2,1] u[2,3] u[2,4]
 u[2,5] u[2,6] u[3,0] u[3,1] u[3,2] u[3,6] u[3,7] u[4,0] u[4,1] u[4,2]
 u[4,5] u[4,6] u[4,7] u[5,0] u[5,1] u[5,2] u[5,4] u[5,6] u[6,0] u[6,1]
 u[6,2] u[6,3] u[6,4] u[6,5] u[7,0] u[7,1] u[7,3] u[7,4] r[0,1] r[0,2]
 r[0,3] r[0,4] r[0,5] r[0,6] r[0,7] r[1,0] r[1,2] r[1,3] r[1,4] r[1,5]
 r[1,6] r[1,7] r[2,0] r[2,1] r[2,3] r[2,4] r[2,5] r[2,6] r[3,0] r[3,1]
 r[3,2] r[3,6] r[3,7] r[4,0] r[4,1] r[4,2] r[4,5] r[4,6] r[4,7] r[5,0]
 r[5,1] r[5,2] r[5,4] r[5,6] r[6,0] r[6,1] r[6,2] r[6,3] r[6,4] r[6,5]
 r[7,0] r[7,1] r[7,3] r[7,4]
End
