instances/shortest_path/discrete/shortest_path_8_2.kp
24980
227

[0.4469674523391083 3.2390194184954058 0.5866049204925953 3.87327146769385 2.5877173135738256 4.494025973777113 2.0675010997486107 3.7146454357935514 4.12440840326935 1.6720890875384233 1.3788425958272919 0.34487990559863646 1.4174476983797308 1.506274752024416 1.9737977053860873 2.781188001368468 3.556595203443407 1.3542729052881282 4.023727787399399 1.4496688167611256 3.8104221349252545 3.334065308791491 3.773277524687134 1.3603395396309546 0.872252259727192 4.732393269364402 0.968861966046756 3.6186422767749433 2.2966013911711864 0.5198661769305579 4.852417619153576 1.9937621089624282 4.407688328829698 1.329503321831115 3.2389893695822787 3.249243613431363 0.3107380683251014 4.577675549881242 0.18424240410159673 0.9859005749018968 3.4503580517357313 1.226422720448851 1.5286743791210702 3.7647420386567947 4.826670479798073 3.399990465056907]

[93 21 71 36 21 99 30 81 58 63 9 16 33 81 82 78 14 61 46 31 90 41 9 76 90 81 83 65 47 96 55 53 53 98 85 26 9 54 25 64 72 3 27 83 84 4]
